p cnf 999 1660
117 0
133 0
175 0
199 0
215 0
234 0
242 0
271 0
298 0
321 0
386 0
439 0
448 0
466 0
493 0
611 0
649 0
664 0
672 0
722 0
781 0
819 0
838 0
861 0
873 0
894 0
916 0
931 0
978 0
992 0
-111 0
-211 0
-311 0
-411 0
-511 0
-711 0
-811 0
-911 0
-115 0
-315 0
-415 0
-515 0
-615 0
-715 0
-815 0
-915 0
-116 0
-216 0
-316 0
-416 0
-516 0
-616 0
-716 0
-816 0
-217 0
-317 0
-417 0
-517 0
-617 0
-717 0
-817 0
-917 0
-119 0
-219 0
-319 0
-419 0
-519 0
-619 0
-719 0
-919 0
-121 0
-221 0
-421 0
-521 0
-621 0
-721 0
-821 0
-921 0
-122 0
-222 0
-322 0
-422 0
-522 0
-622 0
-822 0
-922 0
-131 0
-231 0
-331 0
-431 0
-531 0
-631 0
-731 0
-831 0
-233 0
-333 0
-433 0
-533 0
-633 0
-733 0
-833 0
-933 0
-134 0
-334 0
-434 0
-534 0
-634 0
-734 0
-834 0
-934 0
-138 0
-238 0
-338 0
-438 0
-538 0
-638 0
-738 0
-938 0
-139 0
-239 0
-339 0
-539 0
-639 0
-739 0
-839 0
-939 0
-142 0
-342 0
-442 0
-542 0
-642 0
-742 0
-842 0
-942 0
-148 0
-248 0
-348 0
-548 0
-648 0
-748 0
-848 0
-948 0
-149 0
-249 0
-349 0
-449 0
-549 0
-749 0
-849 0
-949 0
-161 0
-261 0
-361 0
-461 0
-561 0
-661 0
-761 0
-961 0
-164 0
-264 0
-364 0
-464 0
-564 0
-764 0
-864 0
-964 0
-166 0
-266 0
-366 0
-566 0
-666 0
-766 0
-866 0
-966 0
-171 0
-371 0
-471 0
-571 0
-671 0
-771 0
-871 0
-971 0
-172 0
-272 0
-372 0
-472 0
-572 0
-772 0
-872 0
-972 0
-173 0
-273 0
-373 0
-473 0
-573 0
-673 0
-773 0
-973 0
-275 0
-375 0
-475 0
-575 0
-675 0
-775 0
-875 0
-975 0
-178 0
-278 0
-378 0
-478 0
-578 0
-678 0
-778 0
-878 0
-181 0
-281 0
-381 0
-481 0
-581 0
-681 0
-881 0
-981 0
-186 0
-286 0
-486 0
-586 0
-686 0
-786 0
-886 0
-986 0
-192 0
-292 0
-392 0
-492 0
-592 0
-692 0
-792 0
-892 0
-193 0
-293 0
-393 0
-593 0
-693 0
-793 0
-893 0
-993 0
-194 0
-294 0
-394 0
-494 0
-594 0
-694 0
-794 0
-994 0
-198 0
-398 0
-498 0
-598 0
-698 0
-798 0
-898 0
-998 0
-299 0
-399 0
-499 0
-599 0
-699 0
-799 0
-899 0
-999 0
-113 0
-123 0
-143 0
-153 0
-163 0
-183 0
-125 0
-135 0
-145 0
-155 0
-165 0
-185 0
-195 0
-127 0
-137 0
-147 0
-157 0
-167 0
-177 0
-187 0
-197 0
-129 0
-159 0
-169 0
-179 0
-189 0
-241 0
-251 0
-291 0
-212 0
-232 0
-252 0
-262 0
-282 0
-214 0
-224 0
-244 0
-254 0
-274 0
-284 0
-225 0
-235 0
-245 0
-255 0
-265 0
-285 0
-295 0
-218 0
-228 0
-258 0
-268 0
-288 0
-341 0
-351 0
-391 0
-326 0
-336 0
-346 0
-356 0
-376 0
-396 0
-413 0
-423 0
-443 0
-453 0
-463 0
-483 0
-426 0
-436 0
-446 0
-456 0
-476 0
-496 0
-418 0
-428 0
-458 0
-468 0
-488 0
-429 0
-459 0
-469 0
-479 0
-489 0
-641 0
-651 0
-691 0
-612 0
-632 0
-652 0
-662 0
-682 0
-614 0
-624 0
-644 0
-654 0
-674 0
-684 0
-629 0
-659 0
-669 0
-679 0
-689 0
-741 0
-751 0
-791 0
-712 0
-732 0
-752 0
-762 0
-782 0
-841 0
-851 0
-891 0
-813 0
-823 0
-843 0
-853 0
-863 0
-883 0
-814 0
-824 0
-844 0
-854 0
-874 0
-884 0
-818 0
-828 0
-858 0
-868 0
-888 0
-829 0
-859 0
-869 0
-879 0
-889 0
-941 0
-951 0
-991 0
-912 0
-932 0
-952 0
-962 0
-982 0
-926 0
-936 0
-946 0
-956 0
-976 0
-996 0
-918 0
-928 0
-958 0
-968 0
-988 0
-112 0
-114 0
-118 0
-132 0
-136 0
-174 0
-176 0
-191 0
-196 0
-213 0
-236 0
-237 0
-243 0
-246 0
-247 0
-276 0
-277 0
-279 0
-296 0
-297 0
-323 0
-324 0
-325 0
-327 0
-328 0
-329 0
-382 0
-383 0
-384 0
-385 0
-387 0
-388 0
-389 0
-432 0
-435 0
-437 0
-441 0
-444 0
-445 0
-447 0
-462 0
-465 0
-467 0
-491 0
-495 0
-497 0
-613 0
-618 0
-643 0
-645 0
-646 0
-647 0
-663 0
-665 0
-667 0
-668 0
-676 0
-677 0
-723 0
-724 0
-725 0
-726 0
-727 0
-728 0
-729 0
-783 0
-784 0
-785 0
-787 0
-788 0
-789 0
-812 0
-832 0
-835 0
-836 0
-837 0
-862 0
-865 0
-867 0
-876 0
-877 0
-895 0
-896 0
-897 0
-913 0
-914 0
-935 0
-937 0
-974 0
-977 0
-979 0
-995 0
-997 0
-152 0
-162 0
-352 0
-362 0
-482 0
-582 0
-882 0
-223 0
-313 0
-583 0
-683 0
-983 0
-124 0
-314 0
-454 0
-544 0
-554 0
-774 0
-984 0
-335 0
-395 0
-546 0
-556 0
-656 0
-736 0
-826 0
-227 0
-337 0
-188 0
-558 0
-568 0
-658 0
-718 0
-289 0
-379 0
-529 0
-559 0
-569 0
-929 0
121 122 123 124 125 126 127 128 129 0
141 142 143 144 145 146 147 148 149 0
151 152 153 154 155 156 157 158 159 0
161 162 163 164 165 166 167 168 169 0
181 182 183 184 185 186 187 188 189 0
221 222 223 224 225 226 227 228 229 0
251 252 253 254 255 256 257 258 259 0
261 262 263 264 265 266 267 268 269 0
281 282 283 284 285 286 287 288 289 0
311 312 313 314 315 316 317 318 319 0
331 332 333 334 335 336 337 338 339 0
341 342 343 344 345 346 347 348 349 0
351 352 353 354 355 356 357 358 359 0
361 362 363 364 365 366 367 368 369 0
371 372 373 374 375 376 377 378 379 0
391 392 393 394 395 396 397 398 399 0
411 412 413 414 415 416 417 418 419 0
421 422 423 424 425 426 427 428 429 0
451 452 453 454 455 456 457 458 459 0
471 472 473 474 475 476 477 478 479 0
481 482 483 484 485 486 487 488 489 0
511 512 513 514 515 516 517 518 519 0
521 522 523 524 525 526 527 528 529 0
531 532 533 534 535 536 537 538 539 0
541 542 543 544 545 546 547 548 549 0
551 552 553 554 555 556 557 558 559 0
561 562 563 564 565 566 567 568 569 0
571 572 573 574 575 576 577 578 579 0
581 582 583 584 585 586 587 588 589 0
591 592 593 594 595 596 597 598 599 0
621 622 623 624 625 626 627 628 629 0
631 632 633 634 635 636 637 638 639 0
651 652 653 654 655 656 657 658 659 0
681 682 683 684 685 686 687 688 689 0
691 692 693 694 695 696 697 698 699 0
711 712 713 714 715 716 717 718 719 0
731 732 733 734 735 736 737 738 739 0
741 742 743 744 745 746 747 748 749 0
751 752 753 754 755 756 757 758 759 0
761 762 763 764 765 766 767 768 769 0
771 772 773 774 775 776 777 778 779 0
791 792 793 794 795 796 797 798 799 0
821 822 823 824 825 826 827 828 829 0
841 842 843 844 845 846 847 848 849 0
851 852 853 854 855 856 857 858 859 0
881 882 883 884 885 886 887 888 889 0
921 922 923 924 925 926 927 928 929 0
941 942 943 944 945 946 947 948 949 0
951 952 953 954 955 956 957 958 959 0
961 962 963 964 965 966 967 968 969 0
981 982 983 984 985 986 987 988 989 0
-312 -412 0
-312 -512 0
-412 -512 0
-513 -713 0
-414 -514 0
-414 -714 0
-514 -714 0
-318 -518 0
-523 -623 0
-523 -923 0
-623 -923 0
-424 -524 0
-424 -924 0
-524 -924 0
-425 -525 0
-425 -625 0
-425 -825 0
-425 -925 0
-525 -625 0
-525 -825 0
-525 -925 0
-625 -825 0
-625 -925 0
-825 -925 0
-126 -226 0
-126 -526 0
-126 -626 0
-226 -526 0
-226 -626 0
-526 -626 0
-427 -527 0
-427 -627 0
-427 -827 0
-427 -927 0
-527 -627 0
-527 -827 0
-527 -927 0
-627 -827 0
-627 -927 0
-827 -927 0
-128 -528 0
-128 -628 0
-528 -628 0
-332 -532 0
-535 -635 0
-535 -735 0
-635 -735 0
-536 -636 0
-537 -637 0
-537 -737 0
-637 -737 0
-141 -541 0
-343 -543 0
-343 -743 0
-343 -943 0
-543 -743 0
-543 -943 0
-743 -943 0
-144 -344 0
-144 -744 0
-144 -944 0
-344 -744 0
-344 -944 0
-744 -944 0
-345 -545 0
-345 -745 0
-345 -845 0
-345 -945 0
-545 -745 0
-545 -845 0
-545 -945 0
-745 -845 0
-745 -945 0
-845 -945 0
-146 -746 0
-146 -846 0
-746 -846 0
-347 -547 0
-347 -747 0
-347 -847 0
-347 -947 0
-547 -747 0
-547 -847 0
-547 -947 0
-747 -847 0
-747 -947 0
-847 -947 0
-151 -451 0
-151 -551 0
-451 -551 0
-452 -552 0
-452 -852 0
-552 -852 0
-253 -353 0
-253 -553 0
-253 -653 0
-253 -753 0
-253 -953 0
-353 -553 0
-353 -653 0
-353 -753 0
-353 -953 0
-553 -653 0
-553 -753 0
-553 -953 0
-653 -753 0
-653 -953 0
-753 -953 0
-154 -354 0
-154 -754 0
-154 -954 0
-354 -754 0
-354 -954 0
-754 -954 0
-355 -455 0
-355 -555 0
-355 -655 0
-355 -755 0
-355 -855 0
-355 -955 0
-455 -555 0
-455 -655 0
-455 -755 0
-455 -855 0
-455 -955 0
-555 -655 0
-555 -755 0
-555 -855 0
-555 -955 0
-655 -755 0
-655 -855 0
-655 -955 0
-755 -855 0
-755 -955 0
-855 -955 0
-156 -256 0
-156 -756 0
-156 -856 0
-256 -756 0
-256 -856 0
-756 -856 0
-257 -357 0
-257 -457 0
-257 -557 0
-257 -657 0
-257 -757 0
-257 -857 0
-257 -957 0
-357 -457 0
-357 -557 0
-357 -657 0
-357 -757 0
-357 -857 0
-357 -957 0
-457 -557 0
-457 -657 0
-457 -757 0
-457 -857 0
-457 -957 0
-557 -657 0
-557 -757 0
-557 -857 0
-557 -957 0
-657 -757 0
-657 -857 0
-657 -957 0
-757 -857 0
-757 -957 0
-857 -957 0
-158 -358 0
-158 -758 0
-358 -758 0
-259 -359 0
-259 -759 0
-259 -959 0
-359 -759 0
-359 -959 0
-759 -959 0
-263 -363 0
-263 -563 0
-263 -763 0
-263 -963 0
-363 -563 0
-363 -763 0
-363 -963 0
-563 -763 0
-563 -963 0
-763 -963 0
-365 -565 0
-365 -765 0
-365 -965 0
-565 -765 0
-565 -965 0
-765 -965 0
-267 -367 0
-267 -567 0
-267 -767 0
-267 -967 0
-367 -567 0
-367 -767 0
-367 -967 0
-567 -767 0
-567 -967 0
-767 -967 0
-168 -368 0
-168 -768 0
-368 -768 0
-269 -369 0
-269 -769 0
-269 -969 0
-369 -769 0
-369 -969 0
-769 -969 0
-374 -474 0
-374 -574 0
-474 -574 0
-576 -776 0
-377 -477 0
-377 -577 0
-377 -777 0
-477 -577 0
-477 -777 0
-577 -777 0
-579 -779 0
-184 -484 0
-184 -584 0
-484 -584 0
-485 -585 0
-485 -685 0
-485 -885 0
-485 -985 0
-585 -685 0
-585 -885 0
-585 -985 0
-685 -885 0
-685 -985 0
-885 -985 0
-287 -487 0
-287 -587 0
-287 -687 0
-287 -887 0
-287 -987 0
-487 -587 0
-487 -687 0
-487 -887 0
-487 -987 0
-587 -687 0
-587 -887 0
-587 -987 0
-687 -887 0
-687 -987 0
-887 -987 0
-588 -688 0
-589 -989 0
-595 -695 0
-595 -795 0
-695 -795 0
-596 -696 0
-596 -796 0
-696 -796 0
-397 -597 0
-397 -697 0
-397 -797 0
-597 -697 0
-597 -797 0
-697 -797 0
-141 -151 0
-144 -154 0
-144 -184 0
-154 -184 0
-126 -146 0
-126 -156 0
-146 -156 0
-128 -158 0
-128 -168 0
-158 -168 0
-253 -263 0
-253 -283 0
-263 -283 0
-226 -256 0
-257 -267 0
-257 -287 0
-267 -287 0
-229 -259 0
-229 -269 0
-259 -269 0
-312 -332 0
-343 -353 0
-343 -363 0
-353 -363 0
-344 -354 0
-344 -374 0
-354 -374 0
-345 -355 0
-345 -365 0
-355 -365 0
-347 -357 0
-347 -367 0
-347 -377 0
-347 -397 0
-357 -367 0
-357 -377 0
-357 -397 0
-367 -377 0
-367 -397 0
-377 -397 0
-318 -358 0
-318 -368 0
-358 -368 0
-359 -369 0
-412 -452 0
-414 -424 0
-414 -474 0
-414 -484 0
-424 -474 0
-424 -484 0
-474 -484 0
-425 -455 0
-425 -485 0
-455 -485 0
-427 -457 0
-427 -477 0
-427 -487 0
-457 -477 0
-457 -487 0
-477 -487 0
-541 -551 0
-541 -591 0
-551 -591 0
-512 -532 0
-512 -552 0
-512 -562 0
-532 -552 0
-532 -562 0
-552 -562 0
-513 -523 0
-513 -543 0
-513 -553 0
-513 -563 0
-523 -543 0
-523 -553 0
-523 -563 0
-543 -553 0
-543 -563 0
-553 -563 0
-514 -524 0
-514 -574 0
-514 -584 0
-524 -574 0
-524 -584 0
-574 -584 0
-525 -535 0
-525 -545 0
-525 -555 0
-525 -565 0
-525 -585 0
-525 -595 0
-535 -545 0
-535 -555 0
-535 -565 0
-535 -585 0
-535 -595 0
-545 -555 0
-545 -565 0
-545 -585 0
-545 -595 0
-555 -565 0
-555 -585 0
-555 -595 0
-565 -585 0
-565 -595 0
-585 -595 0
-526 -536 0
-526 -576 0
-526 -596 0
-536 -576 0
-536 -596 0
-576 -596 0
-527 -537 0
-527 -547 0
-527 -557 0
-527 -567 0
-527 -577 0
-527 -587 0
-527 -597 0
-537 -547 0
-537 -557 0
-537 -567 0
-537 -577 0
-537 -587 0
-537 -597 0
-547 -557 0
-547 -567 0
-547 -577 0
-547 -587 0
-547 -597 0
-557 -567 0
-557 -577 0
-557 -587 0
-557 -597 0
-567 -577 0
-567 -587 0
-567 -597 0
-577 -587 0
-577 -597 0
-587 -597 0
-518 -528 0
-518 -588 0
-528 -588 0
-579 -589 0
-623 -653 0
-625 -635 0
-625 -655 0
-625 -685 0
-625 -695 0
-635 -655 0
-635 -685 0
-635 -695 0
-655 -685 0
-655 -695 0
-685 -695 0
-626 -636 0
-626 -696 0
-636 -696 0
-627 -637 0
-627 -657 0
-627 -687 0
-627 -697 0
-637 -657 0
-637 -687 0
-637 -697 0
-657 -687 0
-657 -697 0
-687 -697 0
-628 -688 0
-713 -743 0
-713 -753 0
-713 -763 0
-743 -753 0
-743 -763 0
-753 -763 0
-714 -744 0
-714 -754 0
-744 -754 0
-735 -745 0
-735 -755 0
-735 -765 0
-735 -795 0
-745 -755 0
-745 -765 0
-745 -795 0
-755 -765 0
-755 -795 0
-765 -795 0
-746 -756 0
-746 -776 0
-746 -796 0
-756 -776 0
-756 -796 0
-776 -796 0
-737 -747 0
-737 -757 0
-737 -767 0
-737 -777 0
-737 -797 0
-747 -757 0
-747 -767 0
-747 -777 0
-747 -797 0
-757 -767 0
-757 -777 0
-757 -797 0
-767 -777 0
-767 -797 0
-777 -797 0
-758 -768 0
-759 -769 0
-759 -779 0
-769 -779 0
-825 -845 0
-825 -855 0
-825 -885 0
-845 -855 0
-845 -885 0
-855 -885 0
-846 -856 0
-827 -847 0
-827 -857 0
-827 -887 0
-847 -857 0
-847 -887 0
-857 -887 0
-923 -943 0
-923 -953 0
-923 -963 0
-943 -953 0
-943 -963 0
-953 -963 0
-924 -944 0
-924 -954 0
-944 -954 0
-925 -945 0
-925 -955 0
-925 -965 0
-925 -985 0
-945 -955 0
-945 -965 0
-945 -985 0
-955 -965 0
-955 -985 0
-965 -985 0
-927 -947 0
-927 -957 0
-927 -967 0
-927 -987 0
-947 -957 0
-947 -967 0
-947 -987 0
-957 -967 0
-957 -987 0
-967 -987 0
-959 -969 0
-959 -989 0
-969 -989 0
-126 -128 0
-141 -144 0
-141 -146 0
-144 -146 0
-151 -154 0
-151 -156 0
-151 -158 0
-154 -156 0
-154 -158 0
-156 -158 0
-182 -184 0
-226 -229 0
-253 -256 0
-253 -257 0
-253 -259 0
-256 -257 0
-256 -259 0
-257 -259 0
-263 -267 0
-263 -269 0
-267 -269 0
-283 -287 0
-312 -318 0
-343 -344 0
-343 -345 0
-343 -347 0
-344 -345 0
-344 -347 0
-345 -347 0
-353 -354 0
-353 -355 0
-353 -357 0
-353 -358 0
-353 -359 0
-354 -355 0
-354 -357 0
-354 -358 0
-354 -359 0
-355 -357 0
-355 -358 0
-355 -359 0
-357 -358 0
-357 -359 0
-358 -359 0
-363 -365 0
-363 -367 0
-363 -368 0
-363 -369 0
-365 -367 0
-365 -368 0
-365 -369 0
-367 -368 0
-367 -369 0
-368 -369 0
-374 -377 0
-412 -414 0
-424 -425 0
-424 -427 0
-425 -427 0
-451 -452 0
-451 -455 0
-451 -457 0
-452 -455 0
-452 -457 0
-455 -457 0
-474 -477 0
-484 -485 0
-484 -487 0
-485 -487 0
-512 -513 0
-512 -514 0
-512 -518 0
-513 -514 0
-513 -518 0
-514 -518 0
-523 -524 0
-523 -525 0
-523 -526 0
-523 -527 0
-523 -528 0
-524 -525 0
-524 -526 0
-524 -527 0
-524 -528 0
-525 -526 0
-525 -527 0
-525 -528 0
-526 -527 0
-526 -528 0
-527 -528 0
-532 -535 0
-532 -536 0
-532 -537 0
-535 -536 0
-535 -537 0
-536 -537 0
-541 -543 0
-541 -545 0
-541 -547 0
-543 -545 0
-543 -547 0
-545 -547 0
-551 -552 0
-551 -553 0
-551 -555 0
-551 -557 0
-552 -553 0
-552 -555 0
-552 -557 0
-553 -555 0
-553 -557 0
-555 -557 0
-562 -563 0
-562 -565 0
-562 -567 0
-563 -565 0
-563 -567 0
-565 -567 0
-574 -576 0
-574 -577 0
-574 -579 0
-576 -577 0
-576 -579 0
-577 -579 0
-584 -585 0
-584 -587 0
-584 -588 0
-584 -589 0
-585 -587 0
-585 -588 0
-585 -589 0
-587 -588 0
-587 -589 0
-588 -589 0
-591 -595 0
-591 -596 0
-591 -597 0
-595 -596 0
-595 -597 0
-596 -597 0
-623 -625 0
-623 -626 0
-623 -627 0
-623 -628 0
-625 -626 0
-625 -627 0
-625 -628 0
-626 -627 0
-626 -628 0
-627 -628 0
-635 -636 0
-635 -637 0
-636 -637 0
-653 -655 0
-653 -657 0
-655 -657 0
-685 -687 0
-685 -688 0
-687 -688 0
-695 -696 0
-695 -697 0
-696 -697 0
-713 -714 0
-735 -737 0
-743 -744 0
-743 -745 0
-743 -746 0
-743 -747 0
-744 -745 0
-744 -746 0
-744 -747 0
-745 -746 0
-745 -747 0
-746 -747 0
-753 -754 0
-753 -755 0
-753 -756 0
-753 -757 0
-753 -758 0
-753 -759 0
-754 -755 0
-754 -756 0
-754 -757 0
-754 -758 0
-754 -759 0
-755 -756 0
-755 -757 0
-755 -758 0
-755 -759 0
-756 -757 0
-756 -758 0
-756 -759 0
-757 -758 0
-757 -759 0
-758 -759 0
-763 -765 0
-763 -767 0
-763 -768 0
-763 -769 0
-765 -767 0
-765 -768 0
-765 -769 0
-767 -768 0
-767 -769 0
-768 -769 0
-776 -777 0
-776 -779 0
-777 -779 0
-795 -796 0
-795 -797 0
-796 -797 0
-825 -827 0
-845 -846 0
-845 -847 0
-846 -847 0
-852 -855 0
-852 -856 0
-852 -857 0
-855 -856 0
-855 -857 0
-856 -857 0
-885 -887 0
-923 -924 0
-923 -925 0
-923 -927 0
-924 -925 0
-924 -927 0
-925 -927 0
-943 -944 0
-943 -945 0
-943 -947 0
-944 -945 0
-944 -947 0
-945 -947 0
-953 -954 0
-953 -955 0
-953 -957 0
-953 -959 0
-954 -955 0
-954 -957 0
-954 -959 0
-955 -957 0
-955 -959 0
-957 -959 0
-963 -965 0
-963 -967 0
-963 -969 0
-965 -967 0
-965 -969 0
-967 -969 0
-985 -987 0
-985 -989 0
-987 -989 0
-141 -151 0
-541 -551 0
-312 -332 0
-512 -532 0
-552 -562 0
-253 -263 0
-343 -353 0
-343 -363 0
-353 -363 0
-513 -523 0
-543 -553 0
-543 -563 0
-553 -563 0
-743 -753 0
-743 -763 0
-753 -763 0
-943 -953 0
-943 -963 0
-953 -963 0
-144 -154 0
-344 -354 0
-414 -424 0
-514 -524 0
-474 -484 0
-574 -584 0
-744 -754 0
-944 -954 0
-345 -355 0
-345 -365 0
-355 -365 0
-525 -535 0
-625 -635 0
-545 -555 0
-545 -565 0
-555 -565 0
-585 -595 0
-685 -695 0
-745 -755 0
-745 -765 0
-755 -765 0
-845 -855 0
-945 -955 0
-945 -965 0
-955 -965 0
-146 -156 0
-526 -536 0
-626 -636 0
-576 -596 0
-746 -756 0
-846 -856 0
-776 -796 0
-257 -267 0
-347 -357 0
-347 -367 0
-357 -367 0
-377 -397 0
-527 -537 0
-627 -637 0
-547 -557 0
-547 -567 0
-557 -567 0
-477 -487 0
-577 -587 0
-577 -597 0
-587 -597 0
-687 -697 0
-747 -757 0
-747 -767 0
-757 -767 0
-847 -857 0
-947 -957 0
-947 -967 0
-957 -967 0
-777 -797 0
-158 -168 0
-358 -368 0
-518 -528 0
-758 -768 0
-259 -269 0
-359 -369 0
-579 -589 0
-759 -769 0
-959 -969 0
-451 -541 0
-451 -551 0
-412 -512 0
-412 -532 0
-452 -552 0
-452 -562 0
-253 -343 0
-253 -353 0
-253 -363 0
-263 -343 0
-263 -353 0
-263 -363 0
-513 -623 0
-523 -623 0
-543 -653 0
-553 -653 0
-563 -653 0
-713 -923 0
-743 -943 0
-743 -953 0
-743 -963 0
-753 -943 0
-753 -953 0
-753 -963 0
-763 -943 0
-763 -953 0
-763 -963 0
-144 -344 0
-144 -354 0
-154 -344 0
-154 -354 0
-184 -374 0
-414 -514 0
-414 -524 0
-424 -514 0
-424 -524 0
-474 -574 0
-474 -584 0
-484 -574 0
-484 -584 0
-714 -924 0
-744 -944 0
-744 -954 0
-754 -944 0
-754 -954 0
-425 -525 0
-425 -535 0
-425 -625 0
-425 -635 0
-525 -625 0
-525 -635 0
-535 -625 0
-535 -635 0
-455 -545 0
-455 -555 0
-455 -565 0
-455 -655 0
-545 -655 0
-555 -655 0
-565 -655 0
-485 -585 0
-485 -595 0
-485 -685 0
-485 -695 0
-585 -685 0
-585 -695 0
-595 -685 0
-595 -695 0
-735 -825 0
-735 -925 0
-825 -925 0
-745 -845 0
-745 -855 0
-745 -945 0
-745 -955 0
-745 -965 0
-755 -845 0
-755 -855 0
-755 -945 0
-755 -955 0
-755 -965 0
-765 -845 0
-765 -855 0
-765 -945 0
-765 -955 0
-765 -965 0
-845 -945 0
-845 -955 0
-845 -965 0
-855 -945 0
-855 -955 0
-855 -965 0
-795 -885 0
-795 -985 0
-885 -985 0
-126 -226 0
-146 -256 0
-156 -256 0
-526 -626 0
-526 -636 0
-536 -626 0
-536 -636 0
-576 -696 0
-596 -696 0
-746 -846 0
-746 -856 0
-756 -846 0
-756 -856 0
-257 -347 0
-257 -357 0
-257 -367 0
-267 -347 0
-267 -357 0
-267 -367 0
-287 -377 0
-287 -397 0
-427 -527 0
-427 -537 0
-427 -627 0
-427 -637 0
-527 -627 0
-527 -637 0
-537 -627 0
-537 -637 0
-457 -547 0
-457 -557 0
-457 -567 0
-457 -657 0
-547 -657 0
-557 -657 0
-567 -657 0
-477 -577 0
-477 -587 0
-477 -597 0
-477 -687 0
-477 -697 0
-487 -577 0
-487 -587 0
-487 -597 0
-487 -687 0
-487 -697 0
-577 -687 0
-577 -697 0
-587 -687 0
-587 -697 0
-597 -687 0
-597 -697 0
-737 -827 0
-737 -927 0
-827 -927 0
-747 -847 0
-747 -857 0
-747 -947 0
-747 -957 0
-747 -967 0
-757 -847 0
-757 -857 0
-757 -947 0
-757 -957 0
-757 -967 0
-767 -847 0
-767 -857 0
-767 -947 0
-767 -957 0
-767 -967 0
-847 -947 0
-847 -957 0
-847 -967 0
-857 -947 0
-857 -957 0
-857 -967 0
-777 -887 0
-777 -987 0
-797 -887 0
-797 -987 0
-887 -987 0
-128 -318 0
-158 -358 0
-158 -368 0
-168 -358 0
-168 -368 0
-518 -628 0
-528 -628 0
-588 -688 0
-259 -359 0
-259 -369 0
-269 -359 0
-269 -369 0
-759 -959 0
-759 -969 0
-769 -959 0
-769 -969 0
-779 -989 0
